44
1000
200	3
199	4
198	3
197	4
196	1
195	5
194	3
193	2
192	3
191	3
190	2
189	1
188	3
187	1
186	1
185	5
184	1
183	2
182	2
180	4
178	1
177	3
176	4
175	2
173	4
172	3
171	1
170	4
169	4
168	6
166	2
164	3
163	1
161	3
160	3
159	1
158	2
157	2
156	3
155	2
154	1
153	2
152	6
151	4
